(assert (forall ((pkt_0_6_8_0  Int  )(pkt_1_7_9_0  Int  )(state_group_0_state_0_8_a_0  Int  )(state_group_1_state_0_9_b_0  Int  )(state_group_2_state_0_a_c_0  Int  )) (let ((_n0 pkt_0_6_8_0 ))
(let ((_n1 (-  _n0 )))
(let ((_n2 192 ))
(let ((_n3 (+   _n2   _n1 ) ))
(let ((_n4 (-  _n3 )))
(let ((_n5 (+   _n2   _n4 ) ))
(let ((_n6 (=   _n5   _n0 ) ))
(let ((_n8 30 ))
(let ((_n9 pkt_1_7_9_0 ))
(let ((_n10 (<   _n9   _n8 ) ))
(let ((_n11 state_group_1_state_0_9_b_0 ))
(let ((_n12 (+   _n11   _n9 ) ))
(let ((_n13 (ite  _n10   _n12   _n11  ) ))
(let ((_n14 (- 192) ))
(let ((_n15 (<   _n14   _n1 ) ))
(let ((_n16 false ))
(let ((_n17 (=   _n9   (ite  _n16  1 0) ) ))
(let ((_n18 (not  _n17 ) ))
(let ((_n19 (ite (=  _n9  0)  (ite  _n16  1 0)   _n9  ) ))
(let ((_n20 (ite (=  (ite  _n18  1 0)  1)  _n19   (ite  _n16  1 0)  ) ))
(let ((_n21 (ite  _n15   _n20   (ite  _n16  1 0)  ) ))
(let ((_n22 (+   _n11   _n21 ) ))
(let ((_n23 (ite (=  (ite  _n15  1 0)  1)  _n22   _n11  ) ))
(let ((_n24 (=   _n23   _n13 ) ))
(let ((_n26 state_group_2_state_0_a_c_0 ))
(let ((_n27 true ))
(let ((_n28 (+   _n26   (ite  _n27  1 0) ) ))
(let ((_n29 (ite  _n10   _n28   _n26  ) ))
(let ((_n30 (+   _n0   _n14 ) ))
(let ((_n31 (<   _n30   _n26 ) ))
(let ((_n32 (+   _n26   (ite  _n31  1 0) ) ))
(let ((_n33 (ite (=  (ite  _n31  1 0)  1)  _n32   _n26  ) ))
(let ((_n34 (=   _n33   _n29 ) ))
(let ((_n36 (=   _n20   _n9 ) ))
(let ((_n38 state_group_0_state_0_8_a_0 ))
(implies  (and (and (>= state_group_2_state_0_a_c_0 0) (< state_group_2_state_0_a_c_0 1024 ))  (and (and (>= state_group_1_state_0_9_b_0 0) (< state_group_1_state_0_9_b_0 1024 ))  (and (and (>= state_group_0_state_0_8_a_0 0) (< state_group_0_state_0_8_a_0 1024 ))  (and (and (>= pkt_1_7_9_0 0) (< pkt_1_7_9_0 1024 ))  (and (>= pkt_0_6_8_0 0) (< pkt_0_6_8_0 1024 )) ) ) ) )   (and  _n6  _n24  _n34  _n36 )  ))))))))))))))))))))))))))))))))))))))
(check-sat)
(get-model)
(exit)